c "572843.clq"
p edge 150 584
e 1 5
e 1 6
e 1 7
e 1 8
e 1 9
e 1 10
e 1 11
e 1 15
e 1 28
e 1 29
e 1 30
e 1 31
e 1 32
e 1 34
e 1 42
e 1 51
e 1 62
e 1 72
e 1 75
e 1 78
e 1 81
e 1 82
e 1 84
e 1 86
e 1 87
e 1 88
e 1 90
e 1 99
e 1 105
e 1 108
e 1 112
e 1 117
e 1 118
e 1 122
e 1 125
e 2 5
e 2 6
e 2 7
e 2 10
e 2 11
e 2 13
e 2 14
e 2 20
e 2 95
e 2 118
e 2 145
e 2 148
e 3 5
e 3 6
e 3 9
e 3 13
e 3 17
e 3 23
e 3 24
e 3 57
e 3 78
e 3 88
e 3 103
e 3 107
e 3 109
e 3 121
e 3 142
e 4 5
e 4 12
e 4 17
e 4 29
e 4 32
e 4 33
e 4 41
e 4 53
e 4 80
e 5 6
e 5 7
e 5 8
e 5 11
e 5 12
e 5 14
e 5 15
e 5 17
e 5 19
e 5 21
e 5 22
e 5 25
e 5 27
e 5 28
e 5 32
e 5 34
e 5 35
e 5 50
e 5 52
e 5 53
e 5 54
e 5 55
e 5 58
e 5 60
e 5 64
e 5 68
e 5 79
e 5 86
e 5 91
e 5 98
e 5 100
e 5 103
e 5 112
e 5 115
e 5 116
e 5 120
e 5 121
e 5 137
e 5 143
e 5 150
e 6 7
e 6 8
e 6 15
e 6 16
e 6 28
e 6 35
e 6 45
e 6 96
e 6 107
e 6 115
e 6 130
e 6 143
e 7 8
e 7 9
e 7 10
e 7 12
e 7 14
e 7 16
e 7 17
e 7 18
e 7 21
e 7 22
e 7 23
e 7 24
e 7 36
e 7 37
e 7 38
e 7 48
e 7 50
e 7 57
e 7 69
e 7 74
e 7 84
e 7 86
e 7 94
e 7 101
e 7 108
e 7 113
e 7 118
e 7 138
e 7 139
e 7 147
e 8 9
e 8 10
e 8 16
e 8 18
e 8 20
e 8 24
e 8 26
e 8 49
e 8 52
e 8 59
e 8 65
e 8 75
e 8 87
e 8 106
e 8 110
e 8 111
e 8 122
e 8 126
e 9 11
e 9 13
e 9 16
e 9 19
e 9 22
e 9 55
e 9 56
e 9 59
e 9 62
e 9 64
e 9 77
e 9 95
e 9 109
e 9 113
e 9 139
e 10 19
e 10 21
e 10 22
e 10 23
e 10 24
e 10 39
e 10 46
e 10 61
e 10 62
e 10 66
e 10 88
e 10 141
e 11 12
e 11 13
e 11 26
e 11 94
e 11 125
e 11 135
e 12 20
e 12 47
e 12 48
e 12 49
e 12 51
e 12 67
e 12 74
e 12 96
e 12 97
e 12 135
e 12 149
e 13 14
e 13 40
e 13 57
e 13 83
e 13 94
e 13 129
e 13 149
e 14 15
e 14 27
e 14 33
e 14 34
e 14 39
e 14 41
e 14 47
e 14 65
e 14 106
e 14 108
e 14 138
e 15 18
e 15 42
e 15 48
e 15 81
e 15 90
e 15 107
e 15 127
e 15 140
e 15 142
e 15 144
e 16 18
e 16 21
e 16 27
e 16 34
e 16 40
e 16 43
e 16 45
e 16 47
e 16 65
e 16 66
e 16 67
e 16 90
e 16 99
e 16 100
e 16 111
e 16 133
e 16 137
e 16 142
e 16 150
e 17 19
e 17 20
e 17 25
e 17 26
e 17 29
e 17 31
e 17 35
e 17 37
e 17 50
e 17 52
e 17 56
e 17 68
e 17 114
e 17 129
e 17 148
e 18 30
e 18 36
e 18 46
e 18 49
e 18 69
e 18 117
e 18 126
e 19 54
e 19 117
e 20 23
e 20 25
e 20 31
e 20 32
e 20 46
e 20 55
e 20 59
e 20 63
e 20 72
e 20 84
e 20 85
e 20 101
e 20 109
e 20 110
e 20 134
e 21 61
e 21 76
e 21 91
e 21 92
e 21 98
e 21 104
e 21 120
e 22 26
e 22 29
e 22 30
e 22 31
e 22 36
e 22 40
e 22 41
e 22 48
e 22 51
e 22 60
e 22 69
e 22 73
e 22 74
e 22 93
e 22 107
e 22 113
e 22 129
e 23 27
e 23 28
e 23 30
e 23 35
e 23 42
e 23 62
e 23 90
e 23 122
e 23 126
e 23 134
e 23 139
e 24 25
e 24 37
e 24 43
e 24 53
e 24 56
e 24 61
e 24 67
e 24 92
e 24 93
e 24 106
e 24 126
e 25 97
e 25 121
e 26 33
e 26 76
e 26 111
e 26 125
e 27 42
e 27 47
e 27 58
e 27 105
e 28 37
e 28 43
e 28 54
e 28 60
e 28 70
e 28 89
e 28 95
e 28 114
e 28 128
e 28 132
e 28 143
e 29 33
e 29 38
e 29 58
e 29 77
e 29 81
e 29 86
e 29 114
e 29 116
e 30 43
e 30 44
e 30 49
e 30 70
e 30 71
e 30 72
e 30 73
e 30 81
e 30 83
e 30 91
e 30 98
e 30 99
e 30 112
e 30 132
e 30 149
e 31 38
e 31 39
e 31 72
e 31 85
e 31 102
e 31 127
e 32 36
e 32 40
e 32 115
e 32 138
e 32 140
e 32 148
e 32 149
e 33 41
e 33 44
e 33 46
e 33 52
e 33 54
e 33 59
e 33 65
e 33 135
e 33 141
e 34 38
e 34 55
e 34 61
e 34 87
e 34 95
e 35 45
e 35 63
e 35 102
e 35 106
e 36 63
e 36 74
e 36 99
e 36 101
e 36 115
e 36 132
e 37 39
e 37 45
e 37 57
e 37 75
e 37 104
e 37 124
e 38 58
e 38 69
e 38 77
e 38 79
e 38 91
e 38 123
e 39 70
e 39 82
e 40 110
e 40 128
e 41 73
e 41 85
e 41 103
e 41 111
e 41 119
e 42 44
e 42 92
e 43 44
e 43 51
e 43 53
e 43 64
e 43 68
e 43 76
e 43 80
e 43 82
e 43 92
e 43 100
e 43 104
e 43 105
e 43 114
e 43 121
e 44 50
e 44 71
e 44 73
e 44 98
e 45 56
e 45 60
e 46 75
e 46 133
e 48 141
e 50 67
e 50 70
e 50 79
e 50 109
e 50 125
e 51 85
e 51 112
e 52 124
e 52 139
e 54 80
e 54 103
e 55 63
e 55 71
e 56 64
e 56 83
e 56 145
e 57 66
e 57 68
e 57 78
e 57 93
e 57 124
e 57 127
e 58 76
e 58 87
e 58 138
e 58 144
e 59 66
e 59 77
e 59 113
e 59 116
e 59 120
e 59 130
e 59 136
e 60 100
e 60 101
e 62 89
e 62 116
e 64 78
e 64 146
e 65 71
e 65 79
e 65 93
e 65 97
e 65 105
e 65 119
e 65 131
e 66 89
e 67 88
e 67 117
e 68 120
e 69 104
e 70 82
e 70 110
e 71 102
e 71 146
e 72 127
e 74 134
e 75 84
e 76 128
e 77 118
e 77 122
e 78 83
e 78 128
e 79 80
e 79 131
e 80 89
e 80 102
e 83 94
e 83 97
e 84 96
e 85 136
e 88 129
e 88 136
e 90 130
e 90 142
e 92 135
e 94 96
e 94 140
e 94 150
e 95 133
e 96 108
e 98 123
e 98 141
e 101 119
e 101 123
e 101 132
e 103 123
e 103 137
e 108 124
e 108 130
e 108 147
e 114 119
e 114 148
e 116 146
e 117 146
e 120 147
e 122 133
e 122 147
e 123 144
e 123 145
e 125 131
e 125 136
e 126 134
e 128 144
e 129 131
e 129 150
e 131 137
e 131 140
e 131 143
e 142 145
